p cnf 349 1493
e 349 1 348 0
a 82 0
e 99 347 6 5 4 3 2 102 346 0
a 83 84 0
e 105 345 15 14 13 12 11 10 9 8 7 111 114 117 119 120 344 0
a 85 86 0
e 124 343 25 24 23 22 21 20 19 18 17 16 130 133 136 139 142 144 146 147 342 0
a 87 88 0
e 151 341 35 34 33 32 31 30 29 28 27 26 154 160 163 166 169 172 174 176 177 340 0
a 89 90 0
e 181 339 49 48 47 46 45 44 43 42 41 40 39 38 37 36 184 192 195 198 201 204 207 209 210 338 0
a 91 92 93 0
e 215 337 61 60 59 58 57 56 55 54 53 52 51 50 218 224 227 230 233 236 239 242 245 248 250 252 253 336 0
a 94 95 0
e 257 335 71 70 69 68 67 66 65 64 63 62 260 266 270 273 276 279 282 285 288 290 291 334 0
a 96 97 0
e 295 333 77 76 75 74 73 72 298 301 304 307 310 313 316 318 319 332 0
a 98 0
e 320 331 80 79 78 321 323 325 327 328 330 81 329 326 324 322 317 314 315 311 312 309 308 306 305 303 302 300 299 297 296 292 293 294 289 286 287 283 284 281 280 278 277 275 274 272 271 268 269 267 262 265 263 264 261 259 258 254 255 256 251 249 246 247 243 244 241 240 238 237 235 234 232 231 229 228 226 225 220 223 221 222 219 217 216 211 212 213 214 208 205 206 202 203 200 199 197 196 194 193 186 191 187 188 189 190 185 183 182 178 179 180 175 173 170 171 168 167 165 164 162 161 156 159 157 158 155 153 152 148 149 150 145 143 140 141 138 137 135 134 132 131 126 129 127 128 125 121 122 123 118 115 116 113 112 107 110 108 109 106 103 104 101 100 0
349 -348 -1 0
349 348 -1 0
349 1 0
-349 348 -1 0
-349 -348 1 0
-349 348 1 0
348 -99 0
-348 347 99 0
-99 -82 -1 0
348 -347 99 -82 -1 0
348 -347 82 -1 0
348 -347 1 0
99 82 -1 0
99 -82 1 0
99 82 1 0
347 -346 -102 0
-347 102 0
-347 346 -101 -82 0
-102 101 -82 0
-347 346 102 101 -82 0
-347 346 82 0
102 -101 -82 0
102 -101 82 0
102 101 82 0
101 -100 -5 -2 0
-101 5 -2 0
-101 5 2 0
-101 100 -2 0
-101 -100 2 0
-101 100 2 0
100 -3 0
-100 6 4 3 0
100 -6 -4 0
100 6 -4 0
100 -6 4 0
346 -105 0
-346 345 105 0
346 -345 -105 -104 -103 0
105 -104 -103 0
346 -345 104 -103 0
346 -345 103 0
-105 104 -103 0
-105 -104 103 0
-105 104 103 0
-103 -84 83 -3 0
103 3 0
103 -84 -83 0
103 84 -83 0
103 84 83 0
-104 -84 -83 -2 0
104 2 0
104 84 -83 0
104 -84 83 0
104 84 83 0
345 -344 -120 -119 -117 -114 -111 0
-345 111 0
-345 117 -114 0
-345 -117 114 0
-345 117 114 0
-345 120 -119 0
-345 -120 119 0
-345 120 119 0
-345 344 -107 0
-345 344 -110 107 0
-111 110 107 0
-345 344 111 110 107 0
111 -110 -107 0
111 110 -107 0
111 -110 107 0
-107 106 -5 0
107 5 0
107 -106 -2 0
107 -106 -3 2 0
107 -106 3 2 0
106 3 2 0
-106 -3 -2 0
-106 3 -2 0
-106 -3 2 0
110 -109 -108 -13 0
-110 13 0
-110 109 -108 0
-110 -109 108 0
-110 109 108 0
108 -8 0
-108 11 8 0
108 -11 -9 0
108 -11 -10 9 0
108 -15 -11 10 9 0
-109 -108 15 -11 10 9 0
108 15 -11 10 9 0
-109 15 11 10 9 0
109 -10 -9 0
109 10 -9 0
109 -10 9 0
109 -15 -8 0
-114 113 -109 -15 8 0
109 -15 8 0
-114 113 15 8 0
114 -113 -8 0
114 113 -8 0
114 -113 8 0
-113 112 -4 0
113 4 0
113 -112 -2 0
113 -112 -3 2 0
113 -112 3 2 0
112 3 2 0
-112 -3 -2 0
-112 3 -2 0
-112 -3 2 0
117 -115 0
-117 116 115 0
117 -116 -83 0
-115 -84 83 0
117 -116 115 -84 83 0
117 -116 84 83 0
115 -84 -83 0
115 84 -83 0
115 84 83 0
116 -14 -12 0
-116 12 0
-116 14 -7 0
-119 118 -14 7 0
-116 14 7 0
-119 118 116 14 7 0
119 -118 -7 0
119 118 -7 0
119 -118 7 0
-118 -84 -83 0
118 83 0
-120 -84 -15 -14 0
-120 -118 84 -15 -14 0
118 84 -15 -14 0
118 84 15 -14 0
118 84 14 0
120 15 -14 0
120 -15 14 0
120 15 14 0
344 -124 0
-344 343 124 0
344 -343 -124 -123 -122 -121 0
124 -123 -122 -121 0
344 -343 123 -122 -121 0
344 -343 122 -121 0
344 -343 121 0
-124 122 -121 0
-124 -122 121 0
-124 122 121 0
-124 123 -86 -85 -9 0
-121 86 -85 -9 0
-124 123 121 86 -85 -9 0
-124 123 85 -9 0
-124 123 9 0
121 85 -9 0
121 -85 9 0
121 85 9 0
121 -86 -85 -8 0
-122 -121 -86 85 -8 0
121 -86 85 -8 0
121 -86 8 0
122 -85 -8 0
122 -85 8 0
122 85 8 0
-123 -86 -85 -7 0
122 86 -85 -7 0
122 86 85 -7 0
122 86 7 0
123 85 -7 0
123 -85 7 0
123 85 7 0
343 -342 -147 -146 -144 -142 -139 -136 -133 -130 -86 0
343 -342 -147 -146 -144 -142 -139 -136 -133 -130 -123 86 0
123 86 0
-343 133 -130 0
-343 -133 130 0
-343 133 130 0
-343 139 -136 0
-343 -139 136 0
-343 139 136 0
-343 144 -142 0
-343 -144 142 0
-343 144 142 0
-343 147 -146 0
-343 -147 146 0
-343 147 146 0
-343 342 -126 0
-343 342 -129 126 0
-130 129 126 0
-343 342 130 129 126 0
130 -129 -126 0
130 129 -126 0
130 -129 126 0
-126 125 -13 0
126 13 0
126 -125 -7 0
126 -125 -8 7 0
126 -125 -9 8 7 0
126 -125 9 8 7 0
125 9 8 7 0
-125 -9 -8 0
-125 9 -8 0
-125 -9 8 0
-125 -22 -7 0
129 -128 -127 125 -22 -7 0
-125 22 -7 0
129 -128 -127 -22 7 0
-129 127 -22 0
-129 -127 22 0
-129 127 22 0
-129 128 -17 0
-129 128 -20 17 0
-127 20 17 0
-129 128 127 20 17 0
127 -20 -17 0
127 20 -17 0
127 -20 17 0
128 -18 0
-128 25 19 18 0
128 -25 -19 0
128 25 -19 0
128 -25 19 0
133 -132 -23 0
133 -132 -24 23 0
133 -132 24 23 0
-133 132 24 23 0
133 -24 -23 0
133 24 -23 0
133 -24 23 0
-132 131 -12 0
132 12 0
132 -131 -7 0
132 -131 -8 7 0
132 -131 -9 8 7 0
132 -131 9 8 7 0
131 9 8 7 0
-131 -9 -8 0
-131 9 -8 0
-131 -9 8 0
-131 -23 -7 0
-131 23 -7 0
-136 135 131 23 -7 0
-136 135 23 7 0
136 -135 -23 0
136 135 -23 0
136 -135 23 0
-135 134 -11 0
135 11 0
135 -134 -7 0
135 -134 -8 7 0
135 -134 -9 8 7 0
135 -134 9 8 7 0
134 9 8 7 0
-134 -9 -8 0
-134 9 -8 0
-134 -9 8 0
-134 -17 -7 0
-134 17 -7 0
-139 138 134 17 -7 0
-139 138 17 7 0
139 -138 -17 0
139 138 -17 0
139 -138 17 0
-138 137 -10 0
138 10 0
138 -137 -7 0
138 -137 -8 7 0
138 -137 -9 8 7 0
138 -137 9 8 7 0
137 9 8 7 0
-137 -9 -8 0
-137 9 -8 0
-137 -9 8 0
-137 -7 0
-142 141 140 137 -7 0
-142 141 140 7 0
142 -141 -140 0
142 141 -140 0
142 -141 140 0
-140 86 -85 0
140 85 0
141 -140 -86 -24 -21 0
140 -86 -24 -21 0
141 86 -24 -21 0
140 -86 24 -21 0
140 -86 21 0
-141 24 -21 0
-141 -24 21 0
-141 24 21 0
144 -143 -24 0
144 -143 24 0
-144 143 24 0
144 -85 -24 0
-143 -86 85 -24 0
144 143 -86 85 -24 0
144 86 85 -24 0
-143 -86 85 24 0
143 -86 -85 0
143 86 -85 0
143 86 85 0
146 -145 -16 0
146 -145 16 0
-146 145 16 0
-145 -86 -85 -16 0
146 145 -86 -85 -16 0
146 86 -85 -16 0
146 85 -16 0
-145 -86 -85 16 0
145 86 -85 0
145 -86 85 0
145 86 85 0
-147 -25 -24 0
147 24 0
-342 341 151 -25 0
-342 341 151 -147 25 0
147 25 0
342 -341 -151 0
342 341 -151 0
342 -341 151 0
151 -150 -149 -148 0
-151 148 0
-151 150 -149 0
-151 -150 149 0
-151 150 149 0
-148 88 -87 -18 0
148 18 0
148 -88 -87 0
148 -88 87 0
148 88 87 0
-149 -88 87 -17 0
149 17 0
149 -88 -87 0
149 88 -87 0
149 88 87 0
-150 -88 -87 -16 0
150 16 0
150 88 -87 0
150 -88 87 0
150 88 87 0
341 -340 -177 -176 -174 -172 -169 -166 -163 -160 -154 0
-341 154 0
-341 163 -160 0
-341 -163 160 0
-341 163 160 0
-341 169 -166 0
-341 -169 166 0
-341 169 166 0
-341 174 -172 0
-341 -174 172 0
-341 174 172 0
-341 177 -176 0
-341 -177 176 0
-341 177 176 0
-341 340 -35 0
-341 340 -153 35 0
-154 153 35 0
-341 340 154 153 35 0
154 -153 -35 0
154 153 -35 0
154 -153 35 0
-153 152 -23 0
153 23 0
153 -152 -16 0
153 -152 -17 16 0
153 -152 -18 17 16 0
153 -152 18 17 16 0
152 18 17 16 0
-152 -18 -17 0
-152 18 -17 0
-152 -18 17 0
-152 -16 0
-160 159 156 152 -16 0
-160 159 156 16 0
160 -159 -156 0
160 159 -156 0
160 -159 156 0
-156 155 -22 0
156 22 0
156 -155 -16 0
156 -155 -17 16 0
156 -155 -18 17 16 0
156 -155 18 17 16 0
155 18 17 16 0
-155 -18 -17 0
-155 18 -17 0
-155 -18 17 0
-155 -32 -16 0
159 -158 -157 155 -32 -16 0
-155 32 -16 0
159 -158 -157 -32 16 0
-159 157 -32 0
-159 -157 32 0
-159 157 32 0
-159 158 -26 0
-159 158 -30 26 0
-157 30 26 0
-159 158 157 30 26 0
157 -30 -26 0
157 30 -26 0
157 -30 26 0
158 -28 0
-158 35 29 28 0
158 -35 -29 0
158 35 -29 0
158 -35 29 0
163 -162 -33 0
163 -162 -34 33 0
163 -162 34 33 0
-163 162 34 33 0
163 -34 -33 0
163 34 -33 0
163 -34 33 0
-162 161 -21 0
162 21 0
162 -161 -16 0
162 -161 -17 16 0
162 -161 -18 17 16 0
162 -161 18 17 16 0
161 18 17 16 0
-161 -18 -17 0
-161 18 -17 0
-161 -18 17 0
-161 -33 -16 0
-161 33 -16 0
-166 165 161 33 -16 0
-166 165 33 16 0
166 -165 -33 0
166 165 -33 0
166 -165 33 0
-165 164 -20 0
165 20 0
165 -164 -16 0
165 -164 -17 16 0
165 -164 -18 17 16 0
165 -164 18 17 16 0
164 18 17 16 0
-164 -18 -17 0
-164 18 -17 0
-164 -18 17 0
-164 -26 -16 0
-164 26 -16 0
-169 168 164 26 -16 0
-169 168 26 16 0
169 -168 -26 0
169 168 -26 0
169 -168 26 0
-168 167 -19 0
168 19 0
168 -167 -16 0
168 -167 -17 16 0
168 -167 -18 17 16 0
168 -167 18 17 16 0
167 18 17 16 0
-167 -18 -17 0
-167 18 -17 0
-167 -18 17 0
-167 -16 0
-172 171 170 167 -16 0
-172 171 170 16 0
172 -171 -170 0
172 171 -170 0
172 -171 170 0
-170 88 -87 0
170 87 0
171 -170 -88 -34 -31 0
170 -88 -34 -31 0
171 88 -34 -31 0
170 -88 34 -31 0
170 -88 31 0
-171 34 -31 0
-171 -34 31 0
-171 34 31 0
174 -173 -34 0
174 -173 34 0
-174 173 34 0
174 -87 -34 0
-173 -88 87 -34 0
174 173 -88 87 -34 0
174 88 87 -34 0
-173 -88 87 34 0
173 -88 -87 0
173 88 -87 0
173 88 87 0
176 -175 -27 0
176 -175 27 0
-176 175 27 0
-175 -88 -87 -27 0
176 175 -88 -87 -27 0
176 88 -87 -27 0
176 87 -27 0
-175 -88 -87 27 0
175 88 -87 0
175 -88 87 0
175 88 87 0
-177 -35 -34 0
177 34 0
-340 339 181 -35 0
-340 339 181 -177 35 0
177 35 0
340 -339 -181 0
340 339 -181 0
340 -339 181 0
181 -180 -179 -178 0
-181 178 0
-181 180 -179 0
-181 -180 179 0
-181 180 179 0
-178 90 -89 -28 0
178 28 0
178 -90 -89 0
178 -90 89 0
178 90 89 0
-179 -90 89 -27 0
179 27 0
179 -90 -89 0
179 90 -89 0
179 90 89 0
-180 -90 -89 -26 0
180 26 0
180 90 -89 0
180 -90 89 0
180 90 89 0
339 -338 -210 -209 -207 -204 -201 -198 -195 -192 -184 0
-339 184 0
-339 195 -192 0
-339 -195 192 0
-339 195 192 0
-339 201 -198 0
-339 -201 198 0
-339 201 198 0
-339 207 -204 0
-339 -207 204 0
-339 207 204 0
-339 210 -209 0
-339 -210 209 0
-339 210 209 0
-339 338 -49 0
-339 338 -183 49 0
-184 183 49 0
-339 338 184 183 49 0
184 -183 -49 0
184 183 -49 0
184 -183 49 0
-183 182 -33 0
183 33 0
183 -182 -26 0
183 -182 -27 26 0
183 -182 -28 27 26 0
183 -182 28 27 26 0
182 28 27 26 0
-182 -28 -27 0
-182 28 -27 0
-182 -28 27 0
-182 -26 0
-192 191 186 182 -26 0
-192 191 186 26 0
192 -191 -186 0
192 191 -186 0
192 -191 186 0
-186 185 -32 0
186 32 0
186 -185 -26 0
186 -185 -27 26 0
186 -185 -28 27 26 0
186 -185 28 27 26 0
185 28 27 26 0
-185 -28 -27 0
-185 28 -27 0
-185 -28 27 0
-185 -46 -26 0
191 -190 -189 -188 -187 185 -46 -26 0
-185 46 -26 0
191 -190 -189 -188 -187 -46 26 0
-191 187 -46 0
-191 -187 46 0
-191 187 46 0
-191 189 -188 0
-191 -189 188 0
-191 189 188 0
-191 190 -37 0
-191 190 -43 37 0
-187 43 37 0
-191 190 187 43 37 0
187 -43 -37 0
187 43 -37 0
187 -43 37 0
188 -39 0
-188 48 47 41 39 0
188 -48 -41 0
188 48 -41 0
188 -48 41 0
188 -47 -38 0
188 -47 -40 38 0
188 -49 -47 40 38 0
-189 -188 49 -47 40 38 0
188 49 -47 40 38 0
-189 49 47 40 38 0
189 -40 -38 0
189 40 -38 0
189 -40 38 0
189 -49 -38 0
189 -49 -42 38 0
-190 -189 -49 42 38 0
189 -49 42 38 0
-190 49 42 38 0
190 -42 -38 0
190 42 -38 0
190 -42 38 0
195 -194 -47 0
195 -194 -48 47 0
195 -194 48 47 0
-195 194 48 47 0
195 -48 -47 0
195 48 -47 0
195 -48 47 0
-194 193 -31 0
194 31 0
194 -193 -26 0
194 -193 -27 26 0
194 -193 -28 27 26 0
194 -193 28 27 26 0
193 28 27 26 0
-193 -28 -27 0
-193 28 -27 0
-193 -28 27 0
-193 -47 -26 0
-193 47 -26 0
-198 197 193 47 -26 0
-198 197 47 26 0
198 -197 -47 0
198 197 -47 0
198 -197 47 0
-197 196 -30 0
197 30 0
197 -196 -26 0
197 -196 -27 26 0
197 -196 -28 27 26 0
197 -196 28 27 26 0
196 28 27 26 0
-196 -28 -27 0
-196 28 -27 0
-196 -28 27 0
-196 -37 -26 0
-196 37 -26 0
-201 200 196 37 -26 0
-201 200 37 26 0
201 -200 -37 0
201 200 -37 0
201 -200 37 0
-200 199 -29 0
200 29 0
200 -199 -26 0
200 -199 -27 26 0
200 -199 -28 27 26 0
200 -199 28 27 26 0
199 28 27 26 0
-199 -28 -27 0
-199 28 -27 0
-199 -28 27 0
-199 -26 0
-204 203 202 199 -26 0
-204 203 202 26 0
204 -203 -202 0
204 203 -202 0
204 -203 202 0
-202 90 -89 0
202 89 0
203 -202 -90 -48 -45 0
202 -90 -48 -45 0
203 90 -48 -45 0
202 -90 48 -45 0
202 -90 45 0
-203 48 -45 0
-203 -48 45 0
-203 48 45 0
207 -205 0
-207 206 205 0
207 -206 -89 0
-205 -90 89 0
207 -206 205 -90 89 0
207 -206 90 89 0
205 -90 -89 0
205 90 -89 0
205 90 89 0
206 -44 -37 -36 0
-206 44 -37 -36 0
-206 44 37 -36 0
-206 44 36 0
-206 37 -36 0
-206 -37 36 0
-206 37 36 0
209 -208 -48 0
209 -208 48 0
-209 208 48 0
-208 -90 -89 -48 0
209 208 -90 -89 -48 0
209 90 -89 -48 0
209 89 -48 0
-208 -90 -89 48 0
208 90 -89 0
208 -90 89 0
208 90 89 0
-210 -49 -48 0
210 48 0
-338 337 215 -49 0
-338 337 215 -210 49 0
210 49 0
338 -337 -215 0
338 337 -215 0
338 -337 215 0
215 -214 -213 -212 -211 0
-215 211 0
-215 213 -212 0
-215 -213 212 0
-215 213 212 0
-215 214 -91 -39 0
-215 214 -92 91 -39 0
-211 -93 92 91 -39 0
-215 214 211 -93 92 91 -39 0
-215 214 93 92 91 -39 0
-215 214 39 0
211 -91 -39 0
211 -91 39 0
211 91 39 0
211 -93 -92 0
211 93 -92 0
211 93 92 0
-212 -93 92 -91 -38 0
212 38 0
212 -92 -91 0
212 -92 91 0
212 92 91 0
212 93 -91 -37 0
-213 -93 -92 91 -37 0
212 93 -92 91 -37 0
212 93 92 91 -37 0
212 93 37 0
213 -91 -37 0
213 -91 37 0
213 91 37 0
213 93 -92 0
213 -93 92 0
213 93 92 0
-214 -93 -92 -91 -36 0
214 36 0
214 92 -91 0
214 -92 91 0
214 92 91 0
337 -336 -253 -252 -250 -248 -245 -242 -239 -236 -233 -230 -227 -224 -218 -93 0
337 -336 -253 -252 -250 -248 -245 -242 -239 -236 -233 -230 -227 -224 -218 -214 93 0
214 93 0
-337 224 -218 0
-337 -224 218 0
-337 224 218 0
-337 230 -227 0
-337 -230 227 0
-337 230 227 0
-337 236 -233 0
-337 -236 233 0
-337 236 233 0
-337 242 -239 0
-337 -242 239 0
-337 242 239 0
-337 248 -245 0
-337 -248 245 0
-337 248 245 0
-337 252 -250 0
-337 -252 250 0
-337 252 250 0
-337 336 -253 0
-337 -336 253 0
-337 336 253 0
218 -217 -61 0
218 -217 61 0
-218 217 61 0
218 -216 -61 -47 0
-217 216 -61 -47 0
218 217 216 -61 -47 0
-217 216 61 -47 0
218 -61 47 0
217 -216 -47 0
217 -216 47 0
217 216 47 0
-216 -39 -36 0
-216 -39 -37 36 0
-216 -39 -38 37 36 0
-216 -39 38 37 36 0
216 39 38 37 36 0
-216 -38 -37 0
-216 38 -37 0
-216 -38 37 0
-216 -36 0
-224 223 220 216 -36 0
-224 223 220 36 0
224 -223 -220 0
224 223 -220 0
224 -223 220 0
-220 219 -46 0
220 46 0
220 -219 -36 0
220 -219 -37 36 0
220 -219 -38 37 36 0
220 -219 -39 38 37 36 0
220 -219 39 38 37 36 0
219 39 38 37 36 0
-219 -39 -38 0
-219 39 -38 0
-219 -39 38 0
-219 -37 -36 0
-219 37 -36 0
-219 -37 36 0
223 -222 -221 -58 0
-223 58 0
-223 222 -221 0
-223 -222 221 0
-223 222 221 0
221 -50 0
-221 54 50 0
221 -54 -51 0
221 -54 -53 51 0
221 -61 -54 53 51 0
-222 -221 61 -54 53 51 0
221 61 -54 53 51 0
-222 61 54 53 51 0
222 -53 -51 0
222 53 -51 0
222 -53 51 0
222 -61 -59 0
222 -61 -60 59 0
-227 226 -222 -61 60 59 0
222 -61 60 59 0
-227 226 61 60 59 0
227 -226 -60 0
227 226 -60 0
227 -226 60 0
227 -225 -59 -45 0
-226 225 -59 -45 0
227 226 225 -59 -45 0
-226 225 59 -45 0
227 -59 45 0
226 -225 -45 0
226 -225 45 0
226 225 45 0
-225 -39 -36 0
-225 -39 -37 36 0
-225 -39 -38 37 36 0
-225 -39 38 37 36 0
225 39 38 37 36 0
-225 -38 -37 0
-225 38 -37 0
-225 -38 37 0
-225 -52 -36 0
-225 -61 52 -36 0
-225 61 52 -36 0
-230 229 225 61 52 -36 0
-230 229 61 52 36 0
230 -229 -52 0
230 229 -52 0
230 -229 52 0
230 -228 -61 -44 0
-229 228 -61 -44 0
230 229 228 -61 -44 0
-229 228 61 -44 0
230 -61 44 0
229 -228 -44 0
229 -228 44 0
229 228 44 0
-228 -39 -36 0
-228 -39 -37 36 0
-228 -39 -38 37 36 0
-228 -39 38 37 36 0
228 39 38 37 36 0
-228 -38 -37 0
-228 38 -37 0
-228 -38 37 0
-228 -59 -36 0
-228 59 -36 0
-233 232 228 59 -36 0
-233 232 59 36 0
233 -232 -59 0
233 232 -59 0
233 -232 59 0
-232 231 -43 0
232 43 0
232 -231 -36 0
232 -231 -37 36 0
232 -231 -38 37 36 0
232 -231 -39 38 37 36 0
232 -231 39 38 37 36 0
231 39 38 37 36 0
-231 -39 -38 0
-231 39 -38 0
-231 -39 38 0
-231 -37 -36 0
-231 37 -36 0
-231 -37 36 0
236 -235 -55 0
236 -235 55 0
-236 235 55 0
236 -234 -55 -42 0
-235 234 -55 -42 0
236 235 234 -55 -42 0
-235 234 55 -42 0
236 -55 42 0
235 -234 -42 0
235 -234 42 0
235 234 42 0
-234 -39 -36 0
-234 -39 -37 36 0
-234 -39 -38 37 36 0
-234 -39 38 37 36 0
234 39 38 37 36 0
-234 -38 -37 0
-234 38 -37 0
-234 -38 37 0
-234 -52 -36 0
-234 52 -36 0
-239 238 234 52 -36 0
-239 238 52 36 0
239 -238 -52 0
239 238 -52 0
239 -238 52 0
-238 237 -41 0
238 41 0
238 -237 -36 0
238 -237 -37 36 0
238 -237 -38 37 36 0
238 -237 -39 38 37 36 0
238 -237 39 38 37 36 0
237 39 38 37 36 0
-237 -39 -38 0
-237 39 -38 0
-237 -39 38 0
-237 -37 -36 0
-237 37 -36 0
-237 -37 36 0
242 -241 -50 0
242 -241 50 0
-242 241 50 0
242 -240 -50 -40 0
-241 240 -50 -40 0
242 241 240 -50 -40 0
-241 240 50 -40 0
242 -50 40 0
241 -240 -40 0
241 -240 40 0
241 240 40 0
-240 -39 -36 0
-240 -39 -37 36 0
-240 -39 -38 37 36 0
-240 -39 38 37 36 0
240 39 38 37 36 0
-240 -38 -37 0
-240 38 -37 0
-240 -38 37 0
-240 -36 0
-245 244 243 240 -36 0
-245 244 243 36 0
245 -244 -243 0
245 244 -243 0
245 -244 243 0
243 -91 0
-243 -93 92 91 0
243 -93 -92 0
243 93 -92 0
243 93 92 0
244 -61 -57 -50 0
-244 57 -50 0
-244 57 50 0
-244 61 -50 0
-244 -61 50 0
-244 61 50 0
248 -246 0
-248 247 246 0
248 -247 -92 -91 0
-246 -93 92 -91 0
248 -247 246 -93 92 -91 0
248 -247 93 92 -91 0
248 -247 91 0
246 -92 -91 0
246 -92 91 0
246 92 91 0
247 -93 -60 -56 0
247 -246 93 -60 -56 0
246 93 -60 -56 0
246 93 60 -56 0
246 93 56 0
-247 60 -56 0
-247 -60 56 0
-247 60 56 0
250 -249 -60 0
250 -249 60 0
-250 249 60 0
250 -91 -60 0
-249 -93 -92 91 -60 0
250 249 -93 -92 91 -60 0
250 93 -92 91 -60 0
250 92 91 -60 0
-249 -93 -92 91 60 0
249 -92 -91 0
249 92 -91 0
249 92 91 0
249 93 -59 0
-252 251 -93 59 0
-252 251 -249 93 59 0
249 93 59 0
252 -251 -59 0
252 251 -59 0
252 -251 59 0
-251 -93 -92 -91 0
251 91 0
251 93 -92 0
251 -93 92 0
251 93 92 0
-253 -61 -60 0
253 60 0
-336 335 257 -61 0
-336 335 257 -253 61 0
253 61 0
336 -335 -257 0
336 335 -257 0
336 -335 257 0
257 -256 -255 -254 0
-257 254 0
-257 256 -255 0
-257 -256 255 0
-257 256 255 0
-254 95 -94 -52 0
254 52 0
254 -95 -94 0
254 -95 94 0
254 95 94 0
-255 -95 94 -51 0
255 51 0
255 -95 -94 0
255 95 -94 0
255 95 94 0
-256 -95 -94 -50 0
256 50 0
256 95 -94 0
256 -95 94 0
256 95 94 0
335 -334 -291 -290 -288 -285 -282 -279 -276 -273 -270 -266 -260 0
-335 260 0
-335 270 -266 0
-335 -270 266 0
-335 270 266 0
-335 276 -273 0
-335 -276 273 0
-335 276 273 0
-335 282 -279 0
-335 -282 279 0
-335 282 279 0
-335 288 -285 0
-335 -288 285 0
-335 288 285 0
-335 291 -290 0
-335 -291 290 0
-335 291 290 0
-335 334 -71 0
-335 334 -259 71 0
-260 259 71 0
-335 334 260 259 71 0
260 -259 -71 0
260 259 -71 0
260 -259 71 0
-259 258 -59 0
259 59 0
259 -258 -50 0
259 -258 -51 50 0
259 -258 -52 51 50 0
259 -258 52 51 50 0
258 52 51 50 0
-258 -52 -51 0
-258 52 -51 0
-258 -52 51 0
-258 -50 0
-266 265 262 258 -50 0
-266 265 262 50 0
266 -265 -262 0
266 265 -262 0
266 -265 262 0
-262 261 -58 0
262 58 0
262 -261 -50 0
262 -261 -51 50 0
262 -261 -52 51 50 0
262 -261 52 51 50 0
261 52 51 50 0
-261 -52 -51 0
-261 52 -51 0
-261 -52 51 0
-261 -67 -50 0
265 -264 -263 261 -67 -50 0
-261 67 -50 0
265 -264 -263 -67 50 0
-265 263 -67 0
-265 -263 67 0
-265 263 67 0
-265 264 -62 0
-265 264 -66 62 0
-263 66 62 0
-265 264 263 66 62 0
263 -66 -62 0
263 66 -62 0
263 -66 62 0
264 -63 0
-264 71 65 63 0
264 -71 -65 0
264 71 -65 0
264 -71 65 0
270 -268 -68 0
270 -268 68 0
-270 269 268 68 0
270 -269 -68 0
270 269 -68 0
270 -269 68 0
-268 267 -57 0
268 57 0
268 -267 -50 0
268 -267 -51 50 0
268 -267 -52 51 50 0
268 -267 52 51 50 0
267 52 51 50 0
-267 -52 -51 0
-267 52 -51 0
-267 -52 51 0
-267 -71 -62 -50 0
269 267 -71 -62 -50 0
-267 71 -62 -50 0
-267 62 -50 0
269 -71 -62 50 0
-269 71 -62 0
-269 -71 62 0
-269 71 62 0
273 -272 -69 0
273 -272 -70 69 0
273 -272 70 69 0
-273 272 70 69 0
273 -70 -69 0
273 70 -69 0
273 -70 69 0
-272 271 -56 0
272 56 0
272 -271 -50 0
272 -271 -51 50 0
272 -271 -52 51 50 0
272 -271 52 51 50 0
271 52 51 50 0
-271 -52 -51 0
-271 52 -51 0
-271 -52 51 0
-271 -64 -50 0
-271 -71 64 -50 0
-271 71 64 -50 0
-276 275 271 71 64 -50 0
-276 275 71 64 50 0
276 -275 -64 0
276 275 -64 0
276 -275 64 0
276 -274 -71 -55 0
-275 274 -71 -55 0
276 275 274 -71 -55 0
-275 274 71 -55 0
276 -71 55 0
275 -274 -55 0
275 -274 55 0
275 274 55 0
-274 -52 -50 0
-274 -52 -51 50 0
-274 -52 51 50 0
274 52 51 50 0
-274 -51 -50 0
-274 51 -50 0
-274 -51 50 0
279 -278 -69 0
279 -278 69 0
-279 278 69 0
279 -277 -69 -54 0
-278 277 -69 -54 0
279 278 277 -69 -54 0
-278 277 69 -54 0
279 -69 54 0
278 -277 -54 0
278 -277 54 0
278 277 54 0
-277 -52 -50 0
-277 -52 -51 50 0
-277 -52 51 50 0
277 52 51 50 0
-277 -51 -50 0
-277 51 -50 0
-277 -51 50 0
282 -281 -62 0
282 -281 62 0
-282 281 62 0
282 -280 -62 -53 0
-281 280 -62 -53 0
282 281 280 -62 -53 0
-281 280 62 -53 0
282 -62 53 0
281 -280 -53 0
281 -280 53 0
281 280 53 0
-280 -52 -50 0
-280 -52 -51 50 0
-280 -52 51 50 0
280 52 51 50 0
-280 -51 -50 0
-280 51 -50 0
-280 -51 50 0
285 -283 0
-285 284 283 0
285 -284 -95 -94 0
-283 95 -94 0
285 -284 283 95 -94 0
285 -284 94 0
283 -95 -94 0
283 -95 94 0
283 95 94 0
284 -71 -62 0
-284 71 -62 0
-284 71 62 0
-288 287 286 -62 0
-284 62 0
-288 287 286 284 62 0
288 -287 -286 0
288 287 -286 0
288 -287 286 0
286 -94 0
-286 -95 94 0
287 -95 -70 -68 0
287 -286 95 -70 -68 0
286 95 -70 -68 0
286 95 70 -68 0
286 95 68 0
-287 70 -68 0
-287 -70 68 0
-287 70 68 0
290 -289 -70 0
290 -289 70 0
-290 289 70 0
-289 -95 -94 -70 0
290 289 -95 -94 -70 0
290 95 -94 -70 0
290 94 -70 0
-289 -95 -94 70 0
289 95 -94 0
289 -95 94 0
289 95 94 0
-291 -71 -70 0
291 70 0
-334 333 295 -71 0
-334 333 295 -291 71 0
291 71 0
334 -333 -295 0
334 333 -295 0
334 -333 295 0
295 -294 -293 -292 0
-295 292 0
-295 294 -293 0
-295 -294 293 0
-295 294 293 0
-292 97 -96 -64 0
292 64 0
292 -97 -96 0
292 -97 96 0
292 97 96 0
-293 -97 96 -63 0
293 63 0
293 -97 -96 0
293 97 -96 0
293 97 96 0
-294 -97 -96 -62 0
294 62 0
294 97 -96 0
294 -97 96 0
294 97 96 0
333 -332 -319 -318 -316 -313 -310 -307 -304 -301 -298 0
-333 298 0
-333 304 -301 0
-333 -304 301 0
-333 304 301 0
-333 310 -307 0
-333 -310 307 0
-333 310 307 0
-333 316 -313 0
-333 -316 313 0
-333 316 313 0
-333 319 -318 0
-333 -319 318 0
-333 319 318 0
-333 332 -77 0
-333 332 -297 77 0
-298 297 77 0
-333 332 298 297 77 0
298 -297 -77 0
298 297 -77 0
298 -297 77 0
-297 296 -69 0
297 69 0
297 -296 -62 0
297 -296 -63 62 0
297 -296 -64 63 62 0
297 -296 64 63 62 0
296 64 63 62 0
-296 -64 -63 0
-296 64 -63 0
-296 -64 63 0
-296 -75 -62 0
-296 -76 75 -62 0
-296 76 75 -62 0
-301 300 296 76 75 -62 0
-301 300 76 75 62 0
301 -300 -76 0
301 300 -76 0
301 -300 76 0
301 -299 -75 -68 0
-300 299 -75 -68 0
301 300 299 -75 -68 0
-300 299 75 -68 0
301 -75 68 0
300 -299 -68 0
300 -299 68 0
300 299 68 0
-299 -64 -62 0
-299 -64 -63 62 0
-299 -64 63 62 0
299 64 63 62 0
-299 -63 -62 0
-299 63 -62 0
-299 -63 62 0
304 -303 -72 0
304 -303 -73 72 0
304 -303 73 72 0
-304 303 73 72 0
304 -73 -72 0
304 73 -72 0
304 -73 72 0
-303 302 -67 0
303 67 0
303 -302 -62 0
303 -302 -63 62 0
303 -302 -64 63 62 0
303 -302 64 63 62 0
302 64 63 62 0
-302 -64 -63 0
-302 64 -63 0
-302 -64 63 0
-302 -75 -62 0
-302 75 -62 0
-307 306 302 75 -62 0
-307 306 75 62 0
307 -306 -75 0
307 306 -75 0
307 -306 75 0
-306 305 -66 0
306 66 0
306 -305 -62 0
306 -305 -63 62 0
306 -305 -64 63 62 0
306 -305 64 63 62 0
305 64 63 62 0
-305 -64 -63 0
-305 64 -63 0
-305 -64 63 0
-305 -72 -62 0
-305 72 -62 0
-310 309 305 72 -62 0
-310 309 72 62 0
310 -309 -72 0
310 309 -72 0
310 -309 72 0
-309 308 -65 0
309 65 0
309 -308 -62 0
309 -308 -63 62 0
309 -308 -64 63 62 0
309 -308 64 63 62 0
308 64 63 62 0
-308 -64 -63 0
-308 64 -63 0
-308 -64 63 0
-308 -62 0
-313 312 311 308 -62 0
-313 312 311 62 0
313 -312 -311 0
313 312 -311 0
313 -312 311 0
-311 97 -96 0
311 96 0
312 -311 -97 -77 -72 0
311 -97 -77 -72 0
312 97 -77 -72 0
311 -97 77 -72 0
311 -97 72 0
-312 77 -72 0
-312 -77 72 0
-312 77 72 0
316 -314 0
-316 315 314 0
316 -315 -96 0
-314 -97 96 0
316 -315 314 -97 96 0
316 -315 97 96 0
314 -97 -96 0
314 97 -96 0
314 97 96 0
315 -76 -74 0
-315 74 0
-315 76 0
-318 317 315 76 0
318 -317 -76 0
318 317 -76 0
318 -317 76 0
-317 -97 -96 0
317 96 0
-319 -97 -77 -76 0
-319 -317 97 -77 -76 0
317 97 -77 -76 0
317 97 77 -76 0
317 97 76 0
319 77 -76 0
319 -77 76 0
319 77 76 0
332 -320 0
-332 331 320 0
-320 -98 -72 0
332 -331 320 -98 -72 0
332 -331 98 -72 0
332 -331 72 0
320 98 -72 0
320 -98 72 0
320 98 72 0
331 -330 -328 -327 -325 -323 -321 0
-331 321 0
-331 325 -323 0
-331 -325 323 0
-331 325 323 0
-331 328 -327 0
-331 -328 327 0
-331 328 327 0
-331 330 -79 0
-321 -98 79 0
-331 330 321 -98 79 0
-331 330 98 79 0
321 -98 -79 0
321 98 -79 0
321 98 79 0
323 -322 -80 0
323 -322 80 0
-323 322 80 0
-322 -80 -75 -72 0
323 322 -80 -75 -72 0
-322 80 -75 -72 0
323 -80 75 -72 0
323 -80 72 0
322 75 -72 0
322 -75 72 0
322 75 72 0
325 -324 -78 0
325 -324 -79 78 0
325 -324 79 78 0
-325 324 79 78 0
325 -79 -78 0
325 79 -78 0
325 -79 78 0
-324 -74 -72 0
324 74 -72 0
324 74 72 0
-327 326 78 -72 0
324 -78 72 0
-327 326 -324 78 72 0
324 78 72 0
327 -326 -78 0
327 326 -78 0
327 -326 78 0
-326 -73 -72 0
326 73 -72 0
326 73 72 0
-328 -80 -79 -72 0
-328 -326 -80 -79 72 0
326 -80 -79 72 0
326 80 -79 72 0
326 79 72 0
328 80 -79 0
328 -80 79 0
328 80 79 0
330 -329 -81 0
330 -329 81 0
-330 329 81 0
330 -329 -81 0
329 -81 0
329 81 0

